62701
10,23,56,61,64,75,361,419,422,441,677,692,773,941,1127,1143,1383,1497,1530,1566,2174,2256,2265,2504,2538,2551,2584,2821,2874,2906,3023,3032,3055,3078,3138,3251,3304,3329,3426,3520,3531,3584,3739,3826,3844,3865,3875,4008,4071,4129,4256,4288,4312,4360,4433,4449,4553,4609,4614,4700,4716,4838,4853,4896,4920,5026,5068,5148,5150,5279,5421,5493,5557,5604,5712,5836,5859,5883,5949,6096,6165,6190,6276,6373,6376,6422,6526,6804,6936,6953,6981,7068,7093,7106,7117,7175,7216,7264,7327,7338,7514,7557,7691,7698,7874,7915,8075,8079,8154,8340,8422,8494,8618,8660,9031,9132,9239,9252,9469,9546,9581,9825,9854,9874
